PARAMETER_FILE = even/even_uncomplete_graph_new/de/par/random84.par
PROBLEM_FILE = even/even_uncomplete_graph_new/de/mat/random84.tsp
Successes/Runs = 0/10
Cost.min = 711, Cost.avg = 711.00, Cost.max = 711
Gap.min = 0.0000%, Gap.avg = 0.0000%, Gap.max = 0.0000%
Trials.min = 1000, Trials.avg = 1000.0, Trials.max = 1000
Time.min = 0.21 sec., Time.avg = 0.23 sec., Time.max = 0.25 sec.
Time.total = 2.36 sec.
